outputs/case_203.model.txt
passed_high_exam = False
passed_international_audit_exam = False
control_activities_executed = False
financial_experience_years = 5
specialized_staff_ratio = 0
audit_leader_audit_experience_years = 3
information_communication_effective = False
risk_assessment_performed = False
violation_improvement_days = 7
foreign_audit_staff_selected_by_board = False
monitoring_activities_performed = False
control_environment_established = False
audit_leader_financial_experience_years = 2
internal_audit_staff_violation_found = True
local_regulation_defined = False
audit_experience_years = 1
college_graduate = False
audit_staff_bad_record = False
internal_control_system_executed = True
internal_control_system_established = True
internal_handling_system_executed = True
internal_operation_system_executed = True
internal_handling_system_established = True
internal_operation_system_established = True
internal_operation_executed = True
internal_handling_established = True
internal_audit_staff_compliance = True
internal_operation_ok = True
internal_handling_ok = True
internal_audit_staff_foreign_compliance = True
internal_audit_staff_qualified = True
internal_audit_staff_no_violation_or_improved = True
internal_control_executed = True
internal_control_supervision_effective = False
penalty = False
internal_control_compliance = True
internal_operation_established = True
internal_handling_executed = True
internal_control_established = True
internal_control_ok = True
internal_audit_staff_leader_experience = 1